(declare-fun v () Real)
(declare-fun v2 () Real)
(declare-fun v3 () Real)
(declare-fun v5 () Real)
(declare-fun v8 () Real)
(declare-fun v10 () Real)
(declare-fun v1 () Real)
(assert (and (= 0 (+ (* v3 v8) (* v10 v2 v3) (* v2 v3 v5) (* v3 v5 (- 1)) (* v2 v3 v8 (- 1)))) (= 0 (+ v (* v3 v8) (* v10 v2 v3) (* v2 v3 v5) (* v3 v5 (- 1)) (* v v8 (- 1)) (* v2 v3 v8 (- 1)) (* v v1 v8 (- 1)))) (< 0 (* v3 v3)) (> v2 0) (> v 0)))
(assert (= v1 (+ v 1.0)))
(check-sat)
